(set-logic HORN)
(declare-fun !inv0 (Int (Array Int Int) Int Int Int ) Bool)
(assert (forall ((N@0 Int)(array@0 (Array Int Int))(i@0 Int)(j@0 Int)(argmax@0 Int)) (=> (and (> |N@0| 0) (= |i@0| 0) (= |j@0| |N@0|) (= |argmax@0| 0)) (!inv0 |N@0| |array@0| |i@0| |j@0| |argmax@0|))))
(assert (forall ((N@0 Int)(array@0 (Array Int Int))(i@0 Int)(j@0 Int)(argmax@0 Int)) (=> (and (!inv0 |N@0| |array@0| |i@0| |j@0| |argmax@0|) (not (and (<= |i@0| |j@0|) (< |i@0| |N@0|) (> |j@0| 0))) (not (forall ((k@0 Int)) (=> (and (<= 0 |k@0|) (< |k@0| |N@0|)) (<= (select |array@0| |k@0|) (select |array@0| |argmax@0|)))))) false)))
(assert (forall ((N@0 Int)(array@0 (Array Int Int))(i@0 Int)(j@0 Int)(argmax@0 Int)(i@1 Int)(j@1 Int)(argmax@1 Int)) (=> (and (!inv0 |N@0| |array@0| |i@0| |j@0| |argmax@1|) (= |i@1| (+ |i@0| 1)) (= |j@1| (- |j@0| 1)) (< (select |array@0| |argmax@1|) (select |array@0| (- |j@0| 1))) (= |argmax@0| (- |j@0| 1)) (not (< (select |array@0| |argmax@1|) (select |array@0| |i@0|))) (<= |i@0| |j@0|) (< |i@0| |N@0|) (> |j@0| 0)) (!inv0 |N@0| |array@0| |i@1| |j@1| |argmax@0|))))
(assert (forall ((N@0 Int)(array@0 (Array Int Int))(i@0 Int)(j@0 Int)(argmax@0 Int)(i@1 Int)(j@1 Int)(argmax@1 Int)(argmax@3 Int)) (=> (and (!inv0 |N@0| |array@0| |i@0| |j@0| |argmax@3|) (= |i@1| (+ |i@0| 1)) (= |j@1| (- |j@0| 1)) (< (select |array@0| |argmax@1|) (select |array@0| (- |j@0| 1))) (= |argmax@0| (- |j@0| 1)) (< (select |array@0| |argmax@3|) (select |array@0| |i@0|)) (= |argmax@1| |i@0|) (<= |i@0| |j@0|) (< |i@0| |N@0|) (> |j@0| 0)) (!inv0 |N@0| |array@0| |i@1| |j@1| |argmax@0|))))
(assert (forall ((N@0 Int)(array@0 (Array Int Int))(i@0 Int)(j@0 Int)(argmax@0 Int)(i@1 Int)(j@1 Int)(argmax@2 Int)) (=> (and (!inv0 |N@0| |array@0| |i@0| |j@0| |argmax@2|) (= |i@1| (+ |i@0| 1)) (= |j@1| (- |j@0| 1)) (not (< (select |array@0| |argmax@0|) (select |array@0| (- |j@0| 1)))) (< (select |array@0| |argmax@2|) (select |array@0| |i@0|)) (= |argmax@0| |i@0|) (<= |i@0| |j@0|) (< |i@0| |N@0|) (> |j@0| 0)) (!inv0 |N@0| |array@0| |i@1| |j@1| |argmax@0|))))
(assert (forall ((N@0 Int)(array@0 (Array Int Int))(i@0 Int)(j@0 Int)(argmax@0 Int)(i@1 Int)(j@1 Int)) (=> (and (!inv0 |N@0| |array@0| |i@0| |j@0| |argmax@0|) (= |i@1| (+ |i@0| 1)) (= |j@1| (- |j@0| 1)) (not (< (select |array@0| |argmax@0|) (select |array@0| (- |j@0| 1)))) (not (< (select |array@0| |argmax@0|) (select |array@0| |i@0|))) (<= |i@0| |j@0|) (< |i@0| |N@0|) (> |j@0| 0)) (!inv0 |N@0| |array@0| |i@1| |j@1| |argmax@0|))))
(check-sat)